
Gurobi 9.5.2 (win64) logging started Fri Feb  9 18:22:13 2024

Set parameter LogFile to value "./ccga_results/2024-02-09 18-22-11-474/MSP_TimeStampConvert_gurobi_log.txt"
Set parameter TimeLimit to value 35998
